NAME : portcgen-27-18
COMMENT : portcgen N=27, seed=18
TYPE : TSP
DIMENSION : 27
EDGE_WEIGHT_TYPE : EUC_2D
NODE_COORD_SECTION
1 238485 80110
2 -222768 362889
3 131006 476043
4 127868 88655
5 75376 144627
6 -155886 160042
7 -53449 268167
8 -314918 -288183
9 110812 217105
10 235194 150404
11 325508 -222891
12 98733 -323939
13 -61953 -60478
14 73699 239580
15 142641 -473254
16 -6795 258148
17 36953 -79968
18 -11350 4823
19 263070 21240
20 91353 -12061
21 -168785 -44110
22 215714 -95536
23 209868 192213
24 15189 480075
25 65594 -99069
26 -295771 -69921
27 -223544 -94861
